100 10
750 716
575 342
116 278
504 403
689 771
788 249
817 393
251 284
414 398
509 199
620 677
515 443
366 184
619 796
880 491
690 557
641 186
538 333
615 257
375 147
598 623
794 772
341 704
644 198
869 134
234 547
641 610
718 929
406 48
220 157
513 281
509 492
617 464
732 205
419 722
619 421
516 352
534 861
506 177
618 564
501 588
244 80
178 216
501 361
430 228
343 520
653 556
314 185
324 81
351 312
362 574
502 156
532 734
536 414
501 98
202 107
788 613
808 896
440 644
785 263
166 246
753 455
285 187
220 237
860 369
376 33
706 912
684 440
469 580
401 229
746 366
874 430
630 326
634 403
746 140
598 394
471 554
745 609
375 462
411 702
741 172
334 148
729 270
465 541
534 353
516 183
496 404
342 374
153 533
233 105
431 446
533 262
553 177
897 648
743 913
702 395
794 257
409 595
649 687
552 437
